jobs  (incl. supersource/sink ):	52
RESOURCES
- renewable                 : 4 R
- nonrenewable              : 2 N
- doubly constrained        : 0 D
************************************************************************
PRECEDENCE RELATIONS:
jobnr.    #modes  #successors   successors
1	1	9		2 3 4 5 6 7 8 10 11 
2	9	7		32 22 20 17 16 15 9 
3	9	7		33 32 20 19 18 15 9 
4	9	5		32 18 17 12 9 
5	9	8		26 25 24 22 20 19 17 14 
6	9	8		32 30 26 23 20 15 14 13 
7	9	5		33 32 22 18 9 
8	9	9		32 30 27 25 24 21 20 18 17 
9	9	6		36 30 26 25 24 14 
10	9	6		32 29 27 25 17 13 
11	9	9		51 45 38 36 33 30 29 27 24 
12	9	5		36 30 27 25 20 
13	9	7		39 38 36 33 31 28 24 
14	9	6		40 34 29 28 27 21 
15	9	8		50 45 44 40 38 34 28 27 
16	9	8		44 40 39 38 34 31 29 28 
17	9	7		39 38 36 35 33 31 28 
18	9	6		40 38 34 31 29 28 
19	9	6		51 40 39 31 30 29 
20	9	9		51 50 49 45 44 43 38 34 31 
21	9	8		51 50 45 43 38 37 35 31 
22	9	6		48 45 40 38 35 28 
23	9	7		50 44 43 42 40 39 35 
24	9	6		49 44 43 42 40 34 
25	9	6		51 50 49 48 40 39 
26	9	5		48 43 42 40 34 
27	9	3		43 35 31 
28	9	5		51 47 43 41 37 
29	9	5		50 47 42 41 37 
30	9	2		44 35 
31	9	4		48 47 42 41 
32	9	4		50 47 42 41 
33	9	3		48 47 42 
34	9	1		35 
35	9	2		47 41 
36	9	2		50 41 
37	9	2		49 46 
38	9	2		47 46 
39	9	2		47 46 
40	9	1		41 
41	9	1		46 
42	9	1		46 
43	9	1		46 
44	9	1		48 
45	9	1		46 
46	9	1		52 
47	9	1		52 
48	9	1		52 
49	9	1		52 
50	9	1		52 
51	9	1		52 
52	1	0		
************************************************************************
REQUESTS/DURATIONS
jobnr.	mode	dur	R1	R2	R3	R4	N1	N2	
------------------------------------------------------------------------
1	1	0	0	0	0	0	0	0	
2	1	10	12	18	20	22	16	24	
	2	13	11	16	18	19	13	23	
	3	14	10	16	17	18	12	23	
	4	16	8	16	17	14	10	22	
	5	18	7	15	16	12	8	20	
	6	21	6	14	16	12	8	20	
	7	22	4	14	15	8	7	18	
	8	23	3	13	14	8	4	18	
	9	28	2	12	13	6	4	16	
3	1	5	8	26	22	22	11	26	
	2	7	8	25	20	21	10	25	
	3	8	8	25	19	21	9	24	
	4	9	8	25	17	20	9	23	
	5	10	8	25	16	20	7	20	
	6	12	8	25	14	20	7	19	
	7	18	8	25	14	20	5	18	
	8	19	8	25	12	19	5	18	
	9	30	8	25	11	19	3	17	
4	1	1	17	15	16	17	28	13	
	2	12	16	14	15	17	27	12	
	3	13	13	13	15	17	27	11	
	4	16	12	13	12	17	27	11	
	5	17	10	12	11	17	26	11	
	6	21	9	10	10	17	26	10	
	7	22	9	8	10	17	25	9	
	8	28	7	7	7	17	25	9	
	9	29	6	6	7	17	24	9	
5	1	1	21	24	18	28	24	20	
	2	2	20	21	16	28	21	17	
	3	11	19	21	14	28	17	16	
	4	15	17	19	11	28	16	13	
	5	19	17	17	10	27	13	12	
	6	26	16	13	10	27	10	11	
	7	27	15	11	6	27	8	9	
	8	28	13	9	6	26	6	7	
	9	30	13	7	3	26	6	5	
6	1	4	24	18	28	28	17	30	
	2	5	23	18	28	26	17	23	
	3	8	21	18	25	25	17	21	
	4	11	20	18	24	22	17	20	
	5	15	17	17	24	20	16	15	
	6	16	14	17	22	19	16	11	
	7	20	13	17	20	19	16	7	
	8	21	12	16	19	16	15	5	
	9	25	8	16	18	16	15	4	
7	1	4	15	28	17	21	19	16	
	2	5	14	26	16	20	19	16	
	3	7	14	24	16	20	18	13	
	4	12	13	21	16	20	17	11	
	5	13	13	17	16	19	16	10	
	6	14	13	16	16	18	16	8	
	7	17	12	14	16	18	16	7	
	8	26	12	11	16	18	15	6	
	9	29	12	11	16	17	14	4	
8	1	4	8	29	12	29	28	18	
	2	7	7	28	11	27	26	17	
	3	8	7	28	11	27	26	16	
	4	9	7	28	11	25	24	16	
	5	17	5	26	11	24	22	15	
	6	20	5	26	10	23	22	15	
	7	21	4	26	10	22	20	15	
	8	22	3	25	10	22	19	14	
	9	28	3	24	10	20	18	14	
9	1	3	16	19	29	26	25	25	
	2	4	13	17	28	25	24	24	
	3	12	12	14	28	23	22	24	
	4	15	12	14	28	20	21	24	
	5	20	10	10	28	19	20	23	
	6	21	9	10	28	18	17	23	
	7	22	6	7	28	14	15	22	
	8	24	6	5	28	14	14	22	
	9	30	5	4	28	11	13	22	
10	1	1	8	14	21	18	28	21	
	2	10	6	12	17	18	24	20	
	3	15	6	11	15	18	22	20	
	4	16	5	11	15	18	19	19	
	5	17	4	10	11	18	15	19	
	6	18	4	10	9	18	14	18	
	7	23	3	8	7	18	12	18	
	8	28	1	8	6	18	8	17	
	9	30	1	7	4	18	4	17	
11	1	1	23	14	25	23	28	12	
	2	3	22	12	21	23	28	12	
	3	7	20	11	21	23	27	12	
	4	8	19	10	16	23	25	11	
	5	9	19	8	14	23	25	11	
	6	10	18	5	14	23	23	11	
	7	25	17	5	10	23	23	10	
	8	27	17	2	8	23	21	10	
	9	30	16	2	6	23	21	10	
12	1	2	16	27	24	15	27	29	
	2	3	15	27	24	15	24	25	
	3	4	14	24	24	15	24	24	
	4	6	13	22	24	15	22	21	
	5	13	13	21	24	15	21	21	
	6	15	13	21	24	15	18	18	
	7	16	11	19	24	15	17	17	
	8	20	11	18	24	15	16	13	
	9	23	10	15	24	15	15	12	
13	1	2	25	4	24	27	12	29	
	2	3	23	4	23	24	12	26	
	3	5	20	4	22	22	11	22	
	4	6	20	4	22	21	11	20	
	5	11	15	3	22	20	9	17	
	6	13	14	3	21	17	9	12	
	7	18	10	3	21	14	9	10	
	8	23	7	3	20	14	8	8	
	9	24	6	3	20	12	7	6	
14	1	1	28	27	18	18	7	29	
	2	5	24	27	17	17	6	28	
	3	14	22	26	16	14	6	28	
	4	15	21	26	15	12	6	28	
	5	22	18	24	14	11	6	27	
	6	23	18	24	14	10	5	27	
	7	24	16	23	14	8	5	26	
	8	25	13	22	12	6	5	26	
	9	27	10	22	12	4	5	26	
15	1	1	17	21	10	21	18	14	
	2	9	15	20	10	20	16	14	
	3	11	15	20	10	20	15	14	
	4	19	13	20	9	19	14	14	
	5	20	13	20	9	18	13	14	
	6	22	12	19	9	18	13	13	
	7	25	10	19	8	17	11	13	
	8	26	10	19	8	17	11	12	
	9	27	9	19	8	17	10	13	
16	1	2	30	21	19	30	17	29	
	2	8	25	20	19	29	17	24	
	3	13	21	20	19	29	17	24	
	4	14	18	20	18	29	17	21	
	5	15	13	20	17	28	17	18	
	6	16	10	19	17	28	17	15	
	7	18	10	19	16	28	17	13	
	8	25	4	19	16	28	17	8	
	9	30	4	19	16	28	17	7	
17	1	5	27	13	8	19	24	25	
	2	7	25	13	7	18	22	21	
	3	9	22	13	6	18	19	20	
	4	14	19	12	6	17	19	20	
	5	18	19	11	5	16	17	18	
	6	19	16	11	5	16	15	15	
	7	20	15	11	4	14	13	15	
	8	22	10	10	4	13	13	13	
	9	23	9	10	4	13	10	10	
18	1	2	13	22	19	28	3	9	
	2	3	11	20	16	27	2	9	
	3	7	10	20	14	27	2	8	
	4	11	8	19	13	27	2	7	
	5	14	7	18	10	26	1	7	
	6	18	5	17	10	26	1	6	
	7	20	4	15	6	26	1	6	
	8	27	3	14	6	26	1	6	
	9	30	2	13	4	26	1	5	
19	1	5	18	22	20	13	24	20	
	2	15	16	19	19	13	20	20	
	3	16	14	16	18	13	19	20	
	4	19	13	15	16	13	14	19	
	5	20	12	14	14	13	14	19	
	6	23	9	12	10	13	11	19	
	7	24	7	10	10	13	8	19	
	8	26	5	9	6	13	5	18	
	9	27	1	6	6	13	4	18	
20	1	4	10	18	27	26	16	23	
	2	7	10	16	23	25	16	19	
	3	11	10	14	21	25	16	16	
	4	17	10	12	18	25	16	15	
	5	18	10	12	16	25	16	13	
	6	21	9	10	13	24	15	9	
	7	22	9	10	8	24	15	9	
	8	26	9	8	6	24	15	5	
	9	27	9	6	4	24	15	5	
21	1	8	22	5	21	21	23	26	
	2	15	20	5	20	18	22	25	
	3	16	19	5	16	17	21	25	
	4	17	19	4	15	15	17	24	
	5	19	18	4	11	14	16	24	
	6	23	17	3	10	13	14	24	
	7	24	16	3	7	12	13	24	
	8	26	15	2	4	10	9	23	
	9	28	13	2	4	9	8	23	
22	1	5	13	26	28	5	23	28	
	2	6	12	25	26	5	23	27	
	3	12	11	23	23	5	20	24	
	4	13	9	18	23	4	18	19	
	5	14	9	17	20	3	17	16	
	6	17	7	13	18	3	16	14	
	7	18	7	11	15	2	13	10	
	8	26	5	7	13	2	12	10	
	9	27	4	4	11	2	10	7	
23	1	10	15	11	6	22	14	21	
	2	11	13	10	5	18	12	19	
	3	13	13	8	5	18	10	16	
	4	15	13	8	5	14	10	15	
	5	20	12	7	5	12	7	12	
	6	25	11	6	5	9	7	11	
	7	27	11	5	5	8	6	9	
	8	28	11	4	5	4	4	6	
	9	29	10	4	5	1	2	3	
24	1	1	21	20	16	18	13	20	
	2	4	19	18	14	18	12	17	
	3	12	19	17	14	17	10	16	
	4	14	17	17	12	16	10	15	
	5	20	13	16	11	15	8	14	
	6	25	12	14	10	15	8	13	
	7	26	10	14	7	15	6	13	
	8	27	8	13	7	13	6	12	
	9	28	6	11	5	13	5	10	
25	1	2	18	7	28	10	21	27	
	2	6	14	7	27	10	19	27	
	3	10	13	7	26	9	19	27	
	4	19	11	7	24	9	16	27	
	5	20	10	7	23	8	15	27	
	6	26	8	7	23	7	15	27	
	7	28	7	7	22	7	13	27	
	8	29	5	7	21	7	12	27	
	9	30	4	7	20	6	10	27	
26	1	3	17	26	28	2	18	28	
	2	11	17	25	26	2	16	27	
	3	13	16	21	24	2	16	25	
	4	14	13	18	22	2	12	22	
	5	15	12	18	22	2	12	21	
	6	19	12	16	19	2	10	20	
	7	21	10	11	18	2	6	18	
	8	24	8	11	15	2	4	15	
	9	28	7	7	15	2	3	15	
27	1	5	28	9	28	27	21	13	
	2	6	25	9	27	23	19	11	
	3	7	24	8	27	19	16	10	
	4	9	20	7	27	19	13	8	
	5	15	19	7	27	13	13	7	
	6	16	14	6	27	11	10	6	
	7	24	13	6	27	7	8	5	
	8	25	12	5	27	6	5	4	
	9	26	7	5	27	2	3	4	
28	1	2	17	18	21	27	12	27	
	2	3	16	15	19	26	12	26	
	3	4	14	15	19	23	11	25	
	4	13	14	13	18	21	11	25	
	5	14	12	9	17	20	10	25	
	6	18	12	7	16	19	10	24	
	7	22	10	6	15	16	9	24	
	8	25	9	5	14	13	9	23	
	9	26	9	2	14	13	9	23	
29	1	1	16	3	16	24	27	18	
	2	4	15	2	16	20	25	15	
	3	5	15	2	16	19	23	14	
	4	11	14	2	16	19	22	12	
	5	13	14	2	16	17	20	12	
	6	19	13	1	16	16	18	10	
	7	23	13	1	16	13	17	8	
	8	26	12	1	16	13	16	8	
	9	28	12	1	16	10	14	5	
30	1	6	30	17	21	2	21	26	
	2	16	29	15	20	2	19	24	
	3	19	29	14	16	2	19	22	
	4	22	28	13	16	2	16	21	
	5	23	28	13	12	1	12	19	
	6	24	28	13	11	1	10	16	
	7	27	27	12	6	1	7	15	
	8	28	27	11	5	1	6	13	
	9	30	27	10	2	1	2	12	
31	1	7	27	22	30	7	24	29	
	2	10	27	21	29	6	23	28	
	3	11	24	20	29	6	22	25	
	4	19	24	19	28	6	21	23	
	5	22	23	17	28	6	20	22	
	6	23	21	14	28	5	20	19	
	7	24	18	13	28	5	19	18	
	8	27	18	12	27	5	19	14	
	9	29	17	10	27	5	18	14	
32	1	3	18	28	25	26	24	16	
	2	4	16	25	23	25	23	13	
	3	9	15	25	20	25	23	12	
	4	13	11	23	18	24	22	12	
	5	15	11	22	16	22	22	11	
	6	16	7	21	15	21	22	9	
	7	25	7	19	13	20	22	8	
	8	26	5	17	12	19	21	7	
	9	30	1	17	10	19	21	6	
33	1	2	24	20	25	18	24	27	
	2	3	20	19	24	16	22	21	
	3	7	18	18	24	14	20	21	
	4	10	16	15	24	13	17	17	
	5	14	16	15	24	13	17	13	
	6	16	14	13	24	11	15	13	
	7	19	11	12	24	8	12	9	
	8	22	9	10	24	8	10	7	
	9	27	8	10	24	7	10	4	
34	1	2	10	10	28	22	21	24	
	2	3	10	8	25	20	18	24	
	3	5	10	7	23	18	17	22	
	4	6	9	6	20	16	16	22	
	5	10	9	6	20	15	13	20	
	6	12	9	5	17	15	13	19	
	7	19	8	5	13	12	10	16	
	8	20	8	4	11	11	10	15	
	9	28	8	3	10	11	8	14	
35	1	2	21	20	16	29	4	24	
	2	6	18	18	14	28	3	23	
	3	10	17	18	14	28	3	23	
	4	15	14	17	12	28	2	23	
	5	16	12	16	11	27	2	22	
	6	20	9	15	11	26	2	22	
	7	22	9	13	9	26	1	21	
	8	26	6	12	8	25	1	21	
	9	27	3	12	7	25	1	21	
36	1	2	17	2	20	8	25	12	
	2	3	16	2	18	8	24	10	
	3	5	16	2	18	7	24	10	
	4	6	16	2	17	6	24	8	
	5	12	16	2	17	6	24	7	
	6	16	16	2	16	6	24	7	
	7	22	16	2	16	5	24	6	
	8	27	16	2	15	4	24	6	
	9	28	16	2	14	4	24	5	
37	1	1	18	29	19	28	29	28	
	2	2	17	25	17	28	27	27	
	3	3	15	21	17	26	24	23	
	4	10	13	18	17	25	22	19	
	5	13	11	16	16	25	19	18	
	6	16	10	14	15	24	19	16	
	7	19	8	13	15	22	16	14	
	8	23	8	8	15	22	15	12	
	9	30	6	8	14	20	11	7	
38	1	5	29	17	24	30	24	25	
	2	7	27	17	22	29	20	24	
	3	10	26	17	19	28	18	20	
	4	12	25	17	14	27	18	20	
	5	18	25	16	12	26	15	17	
	6	22	24	16	10	26	11	12	
	7	27	23	16	7	26	8	10	
	8	28	21	15	6	24	6	9	
	9	29	21	15	2	24	4	7	
39	1	4	24	24	13	25	26	26	
	2	7	22	22	11	25	24	21	
	3	9	22	20	10	23	22	20	
	4	18	21	18	7	23	21	15	
	5	19	20	17	6	21	20	15	
	6	22	20	15	5	21	19	12	
	7	24	19	11	5	19	19	8	
	8	26	17	11	3	18	17	3	
	9	27	17	9	1	18	16	1	
40	1	1	7	28	19	26	10	13	
	2	2	6	24	18	25	10	13	
	3	4	5	23	16	23	10	13	
	4	11	4	20	16	23	10	12	
	5	14	4	18	15	22	9	11	
	6	17	3	14	14	21	9	11	
	7	20	2	11	13	20	8	10	
	8	25	1	10	12	18	8	10	
	9	28	1	6	10	18	8	10	
41	1	5	26	18	15	28	21	17	
	2	8	22	18	15	27	20	15	
	3	10	20	16	15	27	20	14	
	4	12	18	15	14	26	19	11	
	5	16	18	15	14	25	19	10	
	6	20	15	13	13	25	18	8	
	7	21	15	13	12	24	18	6	
	8	22	13	11	12	24	17	3	
	9	29	10	11	12	24	17	1	
42	1	3	24	26	22	17	20	10	
	2	4	24	24	21	16	20	9	
	3	5	22	23	20	15	19	8	
	4	6	19	21	19	14	18	7	
	5	11	19	20	17	13	16	6	
	6	13	18	18	17	13	16	6	
	7	16	16	16	15	12	14	4	
	8	17	14	16	15	12	14	3	
	9	18	13	14	14	11	12	3	
43	1	2	19	13	28	20	24	15	
	2	4	17	12	25	19	19	13	
	3	5	13	11	23	19	18	12	
	4	7	12	10	21	18	17	12	
	5	8	11	7	21	17	12	10	
	6	16	9	7	19	15	10	7	
	7	23	5	6	18	15	9	7	
	8	28	5	3	16	13	6	5	
	9	29	2	2	13	13	4	3	
44	1	1	24	25	25	17	25	6	
	2	2	21	23	25	15	21	6	
	3	7	21	19	21	13	19	6	
	4	8	19	15	18	12	15	6	
	5	9	16	14	13	8	13	5	
	6	10	15	10	13	7	12	5	
	7	17	14	9	9	7	11	5	
	8	24	10	5	4	4	8	5	
	9	26	9	4	4	3	6	5	
45	1	7	19	11	24	23	21	25	
	2	8	18	9	21	23	18	25	
	3	18	16	8	19	23	18	25	
	4	19	14	7	18	23	15	25	
	5	20	10	7	16	23	15	24	
	6	21	9	7	11	23	13	24	
	7	22	8	5	10	23	11	23	
	8	23	5	4	8	23	9	23	
	9	30	4	4	6	23	8	23	
46	1	1	20	25	28	29	4	30	
	2	4	18	25	28	28	4	27	
	3	8	16	21	27	27	4	26	
	4	15	13	20	27	27	4	25	
	5	25	11	18	26	27	4	23	
	6	26	10	15	26	26	3	23	
	7	27	8	14	25	25	3	20	
	8	29	6	13	25	25	3	19	
	9	30	4	10	24	25	3	19	
47	1	3	17	25	25	28	24	30	
	2	7	17	22	25	24	18	28	
	3	8	16	19	24	22	18	27	
	4	10	15	16	24	21	15	26	
	5	15	14	16	23	20	11	25	
	6	16	14	14	22	16	10	24	
	7	25	14	10	22	16	6	23	
	8	26	13	9	20	12	3	23	
	9	27	12	7	20	11	2	21	
48	1	5	19	19	11	26	24	5	
	2	10	18	19	10	24	22	4	
	3	11	18	18	10	23	18	4	
	4	12	18	17	9	21	16	4	
	5	19	18	15	8	19	14	3	
	6	20	18	14	8	18	14	3	
	7	21	18	14	8	18	11	3	
	8	22	18	12	7	16	10	3	
	9	24	18	12	7	15	7	3	
49	1	1	21	30	19	6	27	30	
	2	5	21	29	18	5	26	30	
	3	7	20	27	18	5	26	30	
	4	8	20	26	17	5	26	30	
	5	14	19	26	17	4	26	30	
	6	20	18	25	17	4	26	30	
	7	21	18	23	17	3	26	30	
	8	28	16	23	16	2	26	30	
	9	29	16	22	16	2	26	30	
50	1	3	19	14	27	17	6	5	
	2	10	19	14	25	15	6	5	
	3	11	19	11	24	13	6	5	
	4	12	19	10	23	12	6	5	
	5	14	19	8	22	9	6	5	
	6	15	18	6	21	9	6	5	
	7	23	18	5	20	6	6	5	
	8	24	18	4	20	5	6	5	
	9	29	18	1	19	1	6	5	
51	1	1	21	22	29	27	22	22	
	2	2	21	19	28	26	19	22	
	3	9	19	19	26	25	19	19	
	4	21	18	18	25	25	15	19	
	5	23	16	15	25	23	13	17	
	6	25	14	13	23	23	10	15	
	7	27	14	12	22	22	10	13	
	8	28	12	11	22	22	6	10	
	9	29	10	8	20	21	4	10	
52	1	0	0	0	0	0	0	0	
************************************************************************

 RESOURCE AVAILABILITIES 
	R 1	R 2	R 3	R 4	N 1	N 2
	69	69	74	74	614	687

************************************************************************
